&CONTROL
  calculation = 'bands'
  etot_conv_thr =   2.0000000000d-05
  forc_conv_thr =   1.0000000000d-04
  outdir = './'
  prefix = 'Si'
  pseudo_dir = './'
  tprnfor = .true.
  tstress = .true.
  verbosity = 'high'
/
&SYSTEM
  degauss =   1.4699723600d-02
  ecutrho =   2.4000000000d+02
  ecutwfc =   3.0000000000d+01
  ibrav = 0
  nat = 2
  nbnd = 12
  nosym = .false.
  ntyp = 1
  occupations = 'smearing'
  smearing = 'cold'
/
&ELECTRONS
  conv_thr =   4.0000000000d-10
  electron_maxstep = 80
  mixing_beta =   4.0000000000d-01
/
ATOMIC_SPECIES
Si     28.0855 Si.pbesol-n-rrkjus_psl.1.0.0.UPF
ATOMIC_POSITIONS crystal
Si           0.7500000000       0.7500000000       0.7500000000 
Si           0.0000000000       0.0000000000       0.0000000000 
K_POINTS crystal_b
6
0.5771058813 	1.1542117625 	0.0000000000 20 !W
0.0000000000 	0.0000000000 	0.0000000000 20 !gg
0.0000000000 	1.1542117625 	0.0000000000 20 !X
0.5771058813 	1.1542117625 	0.0000000000 20 !W
0.5771058813 	0.5771058813 	0.5771058813 20 !L
0.0000000000 	0.0000000000 	0.0000000000 20 !gg
CELL_PARAMETERS (angstrom)
  -2.716365061  -2.716365061  -0.000000000
  -2.716365061  -0.000000000  -2.716365061
  -0.000000000  -2.716365061  -2.716365061
    
