
&BANDS
  prefix = 'Si'
  outdir = './'
  filband = 'si_bands.dat'
/
